problem_generation/data/GISP/train/er_n=68_m=1313_p=0.60_SET2_setparam=100.00_alpha=0.50_752.lp
maximize
OBJ:100x0 + 100x1 + 100x2 + 100x3 + 100x4 + 100x5 + 100x6 + 100x7 + 100x8 + 100x9 + 100x10 + 100x11 + 100x12 + 100x13 + 100x14 + 100x15 + 100x16 + 100x17 + 100x18 + 100x19 + 100x20 + 100x21 + 100x22 + 100x23 + 100x24 + 100x25 + 100x26 + 100x27 + 100x28 + 100x29 + 100x30 + 100x31 + 100x32 + 100x33 + 100x34 + 100x35 + 100x36 + 100x37 + 100x38 + 100x39 + 100x40 + 100x41 + 100x42 + 100x43 + 100x44 + 100x45 + 100x46 + 100x47 + 100x48 + 100x49 + 100x50 + 100x51 + 100x52 + 100x53 + 100x54 + 100x55 + 100x56 + 100x57 + 100x58 + 100x59 + 100x60 + 100x61 + 100x62 + 100x63 + 100x64 + 100x65 + 100x66 + 100x67 - y36_53 - y7_26 - y47_62 - y59_64 - y40_41 - y8_18 - y29_50 - y29_59 - y10_36 - y25_34 - y33_56 - y2_50 - y14_15 - y22_28 - y51_64 - y2_59 - y14_33 - y14_42 - y36_48 - y55_61 - y7_21 - y18_30 - y48_49 - y6_43 - y40_45 - y40_54 - y21_50 - y21_59 - y54_65 - y10_49 - y44_51 - y2_45 - y22_23 - y32_55 - y13_51 - y32_64 - y16_56 - y1_67 - y16_65 - y55_56 - y17_39 - y55_65 - y36_61 - y5_55 - y17_57 - y5_64 - y21_27 - y29_40 - y6_56 - y40_58 - y2_13 - y10_35 - y31_67 - y10_44 - y51_54 - y43_50 - y51_63 - y13_46 - y3_23 - y1_53 - y1_62 - y24_64 - y17_25 - y36_47 - y17_43 - y28_43 - y36_56 - y5_50 - y6_15 - y17_52 - y9_48 - y36_65 - y47_65 - y58_62 - y9_57 - y21_22 - y50_58 - y40_44 - y42_63 - y6_51 - y10_21 - y54_55 - y39_66 - y23_58 - y12_67 - y4_63 - y43_45 - y51_58 - y24_41 - y1_48 - y24_50 - y32_63 - y16_46 - y35_50 - y1_57 - y17_29 - y28_29 - y9_52 - y5_63 - y6_28 - y27_60 - y50_62 - y42_58 - y21_35 - y6_46 - y2_21 - y54_59 - y32_40 - y24_36 - y32_49 - y13_45 - y24_45 - y35_45 - y13_63 - y24_63 - y5_22 - y57_60 - y17_42 - y5_49 - y9_47 - y5_58 - y31_34 - y0_65 - y11_65 - y12_39 - y23_39 - y20_52 - y32_44 - y1_38 - y13_40 - y35_40 - y1_47 - y16_45 - y1_56 - y5_26 - y17_28 - y9_24 - y49_60 - y28_37 - y5_44 - y27_50 - y30_46 - y50_61 - y19_55 - y0_51 - y19_64 - y42_66 - y11_60 - y39_51 - y31_47 - y31_56 - y23_52 - y31_65 - y4_48 - y13_26 - y34_58 - y13_35 - y24_35 - y56_67 - y13_44 - y24_44 - y35_44 - y16_40 - y16_49 - y9_10 - y38_46 - y49_55 - y27_36 - y6_13 - y8_32 - y11_37 - y11_46 - y19_59 - y30_59 - y0_55 - y11_55 - y20_33 - y0_64 - y4_25 - y23_47 - y1_10 - y23_56 - y34_53 - y45_53 - y1_28 - y53_66 - y64_66 - y34_62 - y16_35 - y5_7 - y38_41 - y65_67 - y15_48 - y5_25 - y15_66 - y27_49 - y0_32 - y30_45 - y11_41 - y0_50 - y12_15 - y8_63 - y4_11 - y12_33 - y4_29 - y33_65 - y23_42 - y44_65 - y4_38 - y34_39 - y34_48 - y45_48 - y1_32 - y3_51 - y34_66 - y45_66 - y56_66 - y15_34 - y26_43 - y46_58 - y7_39 - y15_52 - y26_52 - y18_48 - y26_61 - y49_63 - y11_18 - y27_44 - y52_55 - y20_32 - y4_15 - y12_28 - y33_60 - y44_60 - y12_37 - y25_56 - y10_67 - y45_52 - y53_65 - y14_46 - y64_65 - y22_59 - y45_61 - y3_55 - y26_29 - y7_25 - y15_38 - y7_34 - y18_34 - y15_47 - y38_49 - y7_43 - y0_4 - y0_13 - y18_61 - y48_62 - y27_39 - y11_22 - y19_35 - y30_35 - y11_31 - y40_67 - y30_44 - y4_10 - y33_55 - y10_62 - y2_58 - y1_13 - y2_67 - y22_45 - y3_41 - y56_65 - y14_59 - y7_20 - y59_67 - y26_42 - y15_51 - y7_47 - y18_56 - y8_30 - y21_58 - y0_35 - y4_5 - y52_54 - y60_67 - y25_46 - y10_57 - y25_55 - y22_31 - y14_36 - y34_51 - y45_51 - y37_47 - y22_58 - y3_54 - y26_28 - y55_64 - y47_60 - y15_37 - y7_33 - y26_46 - y29_39 - y48_61 - y21_44 - y40_57 - y21_62 - y25_32 - y52_58 - y3_13 - y10_61 - y22_26 - y33_63 - y44_63 - y14_22 - y14_31 - y22_44 - y3_40 - y14_40 - y7_19 - y18_19 - y26_32 - y36_55 - y18_28 - y17_60 - y8_11 - y0_7 - y48_65 - y21_57 - y25_27 - y33_40 - y44_49 - y25_45 - y3_8 - y51_57 - y2_52 - y3_17 - y14_17 - y25_54 - y24_58 - y14_35 - y36_50 - y7_23 - y9_42 - y59_61 - y5_53 - y5_62 - y28_64 - y21_25 - y29_56 - y21_52 - y54_58 - y33_35 - y25_31 - y54_67 - y33_44 - y2_38 - y25_40 - y10_51 - y3_12 - y22_25 - y51_61 - y2_56 - y3_21 - y14_21 - y13_53 - y35_53 - y32_66 - y24_62 - y35_62 - y16_67 - y36_54 - y9_37 - y36_63 - y17_59 - y9_64 - y21_29 - y61_65 - y6_40 - y29_42 - y40_42 - y29_51 - y21_47 - y2_15 - y2_24 - y31_60 - y25_35 - y32_34 - y32_43 - y3_16 - y14_16 - y32_52 - y51_65 - y3_25 - y13_57 - y1_64 - y17_27 - y17_36 - y36_49 - y47_49 - y9_41 - y5_52 - y17_54 - y28_54 - y28_63 - y58_64 - y50_60 - y29_37 - y27_67 - y10_14 - y20_46 - y10_23 - y31_55 - y12_51 - y31_64 - y54_66 - y23_60 - y4_56 - y32_38 - y43_47 - y43_65 - y1_59 - y35_61 - y9_18 - y16_66 - y5_29 - y17_31 - y17_40 - y28_40 - y5_47 - y6_21 - y58_59 - y42_51 - y8_58 - y19_58 - y42_60 - y0_63 - y2_5 - y10_18 - y39_54 - y31_50 - y23_46 - y2_23 - y20_59 - y1_27 - y24_29 - y4_60 - y13_38 - y1_45 - y16_52 - y1_63 - y9_13 - y16_61 - y46_62 - y38_58 - y49_58 - y5_33 - y28_35 - y49_67 - y21_23 - y50_59 - y8_53 - y27_66 - y0_49 - y20_27 - y11_58 - y12_32 - y23_32 - y20_45 - y31_45 - y39_58 - y23_41 - y20_54 - y31_54 - y39_67 - y12_50 - y13_15 - y31_63 - y4_46 - y23_59 - y1_22 - y53_60 - y32_37 - y1_31 - y45_65 - y1_49 - y24_51 - y35_51 - y5_10 - y38_44 - y9_17 - y38_62 - y49_62 - y9_35 - y8_39 - y19_39 - y8_48 - y42_50 - y20_22 - y0_53 - y12_18 - y19_66 - y30_66 - y11_62 - y23_27 - y4_23 - y12_36 - y4_32 - y12_45 - y1_8 - y23_63 - y53_64 - y1_35 - y24_37 - y35_37 - y16_33 - y9_12 - y46_61 - y7_51 - y8_34 - y27_47 - y0_30 - y8_43 - y11_39 - y8_52 - y0_48 - y8_61 - y60_62 - y31_35 - y0_66 - y4_27 - y23_40 - y4_36 - y23_49 - y13_14 - y1_21 - y3_58 - y14_58 - y15_50 - y38_52 - y57_65 - y38_61 - y49_61 - y0_34 - y42_49 - y11_43 - y8_56 - y0_52 - y11_52 - y0_61 - y12_26 - y52_62 - y31_39 - y4_22 - y23_35 - y33_67 - y4_40 - y34_41 - y1_16 - y13_18 - y22_57 - y56_59 - y22_66 - y14_62 - y37_64 - y7_32 - y7_41 - y8_15 - y15_63 - y0_11 - y7_59 - y0_20 - y8_33 - y27_46 - y0_47 - y41_57 - y52_57 - y25_58 - y25_67 - y22_43 - y3_39 - y14_39 - y37_41 - y45_54 - y14_48 - y22_61 - y37_59 - y15_22 - y3_66 - y26_31 - y7_27 - y15_58 - y26_58 - y27_32 - y8_28 - y19_28 - y11_24 - y30_37 - y11_33 - y0_42 - y12_16 - y33_48 - y25_44 - y10_55 - y33_57 - y25_62 - y34_40 - y34_49 - y3_43 - y22_56 - y56_58 - y3_52 - y15_17 - y37_54 - y14_61 - y15_26 - y15_35 - y18_31 - y18_49 - y8_14 - y8_23 - y48_59 - y0_19 - y11_19 - y29_55 - y21_51 - y6_62 - y11_28 - y29_64 - y33_34 - y25_30 - y4_7 - y33_43 - y25_39 - y4_16 - y33_52 - y41_65 - y25_48 - y44_52 - y10_59 - y25_57 - y14_20 - y22_33 - y34_35 - y2_64 - y25_66 - y3_38 - y37_40
 Subject to
C1: x0+x1 <=1 
C2: x0+x4-y0_4 <=1 
C3: x0+x5 <=1 
C4: x0+x7-y0_7 <=1 
C5: x0+x8 <=1 
C6: x0+x9 <=1 
C7: x0+x10 <=1 
C8: x0+x11-y0_11 <=1 
C9: x0+x13-y0_13 <=1 
C10: x0+x14 <=1 
C11: x0+x15 <=1 
C12: x0+x19-y0_19 <=1 
C13: x0+x20-y0_20 <=1 
C14: x0+x22 <=1 
C15: x0+x23 <=1 
C16: x0+x30-y0_30 <=1 
C17: x0+x31 <=1 
C18: x0+x32-y0_32 <=1 
C19: x0+x34-y0_34 <=1 
C20: x0+x35-y0_35 <=1 
C21: x0+x42-y0_42 <=1 
C22: x0+x43 <=1 
C23: x0+x44 <=1 
C24: x0+x45 <=1 
C25: x0+x47-y0_47 <=1 
C26: x0+x48-y0_48 <=1 
C27: x0+x49-y0_49 <=1 
C28: x0+x50-y0_50 <=1 
C29: x0+x51-y0_51 <=1 
C30: x0+x52-y0_52 <=1 
C31: x0+x53-y0_53 <=1 
C32: x0+x55-y0_55 <=1 
C33: x0+x58 <=1 
C34: x0+x61-y0_61 <=1 
C35: x0+x63-y0_63 <=1 
C36: x0+x64-y0_64 <=1 
C37: x0+x65-y0_65 <=1 
C38: x0+x66-y0_66 <=1 
C39: x0+x67 <=1 
C40: x1+x2 <=1 
C41: x1+x5 <=1 
C42: x1+x7 <=1 
C43: x1+x8-y1_8 <=1 
C44: x1+x10-y1_10 <=1 
C45: x1+x13-y1_13 <=1 
C46: x1+x14 <=1 
C47: x1+x15 <=1 
C48: x1+x16-y1_16 <=1 
C49: x1+x18 <=1 
C50: x1+x21-y1_21 <=1 
C51: x1+x22-y1_22 <=1 
C52: x1+x23 <=1 
C53: x1+x25 <=1 
C54: x1+x26 <=1 
C55: x1+x27-y1_27 <=1 
C56: x1+x28-y1_28 <=1 
C57: x1+x29 <=1 
C58: x1+x30 <=1 
C59: x1+x31-y1_31 <=1 
C60: x1+x32-y1_32 <=1 
C61: x1+x34 <=1 
C62: x1+x35-y1_35 <=1 
C63: x1+x38-y1_38 <=1 
C64: x1+x39 <=1 
C65: x1+x41 <=1 
C66: x1+x42 <=1 
C67: x1+x45-y1_45 <=1 
C68: x1+x46 <=1 
C69: x1+x47-y1_47 <=1 
C70: x1+x48-y1_48 <=1 
C71: x1+x49-y1_49 <=1 
C72: x1+x52 <=1 
C73: x1+x53-y1_53 <=1 
C74: x1+x56-y1_56 <=1 
C75: x1+x57-y1_57 <=1 
C76: x1+x58 <=1 
C77: x1+x59-y1_59 <=1 
C78: x1+x60 <=1 
C79: x1+x62-y1_62 <=1 
C80: x1+x63-y1_63 <=1 
C81: x1+x64-y1_64 <=1 
C82: x1+x67-y1_67 <=1 
C83: x2+x3 <=1 
C84: x2+x4 <=1 
C85: x2+x5-y2_5 <=1 
C86: x2+x6 <=1 
C87: x2+x10 <=1 
C88: x2+x13-y2_13 <=1 
C89: x2+x14 <=1 
C90: x2+x15-y2_15 <=1 
C91: x2+x17 <=1 
C92: x2+x19 <=1 
C93: x2+x20 <=1 
C94: x2+x21-y2_21 <=1 
C95: x2+x23-y2_23 <=1 
C96: x2+x24-y2_24 <=1 
C97: x2+x25 <=1 
C98: x2+x29 <=1 
C99: x2+x34 <=1 
C100: x2+x35 <=1 
C101: x2+x36 <=1 
C102: x2+x38-y2_38 <=1 
C103: x2+x39 <=1 
C104: x2+x44 <=1 
C105: x2+x45-y2_45 <=1 
C106: x2+x46 <=1 
C107: x2+x47 <=1 
C108: x2+x48 <=1 
C109: x2+x49 <=1 
C110: x2+x50-y2_50 <=1 
C111: x2+x51 <=1 
C112: x2+x52-y2_52 <=1 
C113: x2+x55 <=1 
C114: x2+x56-y2_56 <=1 
C115: x2+x58-y2_58 <=1 
C116: x2+x59-y2_59 <=1 
C117: x2+x63 <=1 
C118: x2+x64-y2_64 <=1 
C119: x2+x67-y2_67 <=1 
C120: x3+x5 <=1 
C121: x3+x7 <=1 
C122: x3+x8-y3_8 <=1 
C123: x3+x10 <=1 
C124: x3+x11 <=1 
C125: x3+x12-y3_12 <=1 
C126: x3+x13-y3_13 <=1 
C127: x3+x16-y3_16 <=1 
C128: x3+x17-y3_17 <=1 
C129: x3+x21-y3_21 <=1 
C130: x3+x23-y3_23 <=1 
C131: x3+x24 <=1 
C132: x3+x25-y3_25 <=1 
C133: x3+x26 <=1 
C134: x3+x27 <=1 
C135: x3+x28 <=1 
C136: x3+x30 <=1 
C137: x3+x31 <=1 
C138: x3+x33 <=1 
C139: x3+x36 <=1 
C140: x3+x38-y3_38 <=1 
C141: x3+x39-y3_39 <=1 
C142: x3+x40-y3_40 <=1 
C143: x3+x41-y3_41 <=1 
C144: x3+x43-y3_43 <=1 
C145: x3+x47 <=1 
C146: x3+x48 <=1 
C147: x3+x50 <=1 
C148: x3+x51-y3_51 <=1 
C149: x3+x52-y3_52 <=1 
C150: x3+x54-y3_54 <=1 
C151: x3+x55-y3_55 <=1 
C152: x3+x56 <=1 
C153: x3+x57 <=1 
C154: x3+x58-y3_58 <=1 
C155: x3+x59 <=1 
C156: x3+x60 <=1 
C157: x3+x65 <=1 
C158: x3+x66-y3_66 <=1 
C159: x4+x5-y4_5 <=1 
C160: x4+x7-y4_7 <=1 
C161: x4+x9 <=1 
C162: x4+x10-y4_10 <=1 
C163: x4+x11-y4_11 <=1 
C164: x4+x12 <=1 
C165: x4+x14 <=1 
C166: x4+x15-y4_15 <=1 
C167: x4+x16-y4_16 <=1 
C168: x4+x18 <=1 
C169: x4+x21 <=1 
C170: x4+x22-y4_22 <=1 
C171: x4+x23-y4_23 <=1 
C172: x4+x25-y4_25 <=1 
C173: x4+x26 <=1 
C174: x4+x27-y4_27 <=1 
C175: x4+x29-y4_29 <=1 
C176: x4+x30 <=1 
C177: x4+x32-y4_32 <=1 
C178: x4+x33 <=1 
C179: x4+x34 <=1 
C180: x4+x35 <=1 
C181: x4+x36-y4_36 <=1 
C182: x4+x38-y4_38 <=1 
C183: x4+x40-y4_40 <=1 
C184: x4+x41 <=1 
C185: x4+x46-y4_46 <=1 
C186: x4+x47 <=1 
C187: x4+x48-y4_48 <=1 
C188: x4+x56-y4_56 <=1 
C189: x4+x58 <=1 
C190: x4+x59 <=1 
C191: x4+x60-y4_60 <=1 
C192: x4+x61 <=1 
C193: x4+x62 <=1 
C194: x4+x63-y4_63 <=1 
C195: x4+x66 <=1 
C196: x4+x67 <=1 
C197: x5+x6 <=1 
C198: x5+x7-y5_7 <=1 
C199: x5+x10-y5_10 <=1 
C200: x5+x12 <=1 
C201: x5+x17 <=1 
C202: x5+x18 <=1 
C203: x5+x22-y5_22 <=1 
C204: x5+x23 <=1 
C205: x5+x25-y5_25 <=1 
C206: x5+x26-y5_26 <=1 
C207: x5+x29-y5_29 <=1 
C208: x5+x30 <=1 
C209: x5+x32 <=1 
C210: x5+x33-y5_33 <=1 
C211: x5+x35 <=1 
C212: x5+x36 <=1 
C213: x5+x37 <=1 
C214: x5+x38 <=1 
C215: x5+x40 <=1 
C216: x5+x43 <=1 
C217: x5+x44-y5_44 <=1 
C218: x5+x47-y5_47 <=1 
C219: x5+x48 <=1 
C220: x5+x49-y5_49 <=1 
C221: x5+x50-y5_50 <=1 
C222: x5+x51 <=1 
C223: x5+x52-y5_52 <=1 
C224: x5+x53-y5_53 <=1 
C225: x5+x55-y5_55 <=1 
C226: x5+x56 <=1 
C227: x5+x57 <=1 
C228: x5+x58-y5_58 <=1 
C229: x5+x59 <=1 
C230: x5+x62-y5_62 <=1 
C231: x5+x63-y5_63 <=1 
C232: x5+x64-y5_64 <=1 
C233: x5+x67 <=1 
C234: x6+x8 <=1 
C235: x6+x9 <=1 
C236: x6+x13-y6_13 <=1 
C237: x6+x15-y6_15 <=1 
C238: x6+x19 <=1 
C239: x6+x20 <=1 
C240: x6+x21-y6_21 <=1 
C241: x6+x23 <=1 
C242: x6+x24 <=1 
C243: x6+x25 <=1 
C244: x6+x26 <=1 
C245: x6+x27 <=1 
C246: x6+x28-y6_28 <=1 
C247: x6+x29 <=1 
C248: x6+x31 <=1 
C249: x6+x36 <=1 
C250: x6+x37 <=1 
C251: x6+x40-y6_40 <=1 
C252: x6+x43-y6_43 <=1 
C253: x6+x45 <=1 
C254: x6+x46-y6_46 <=1 
C255: x6+x47 <=1 
C256: x6+x49 <=1 
C257: x6+x51-y6_51 <=1 
C258: x6+x54 <=1 
C259: x6+x55 <=1 
C260: x6+x56-y6_56 <=1 
C261: x6+x61 <=1 
C262: x6+x62-y6_62 <=1 
C263: x6+x63 <=1 
C264: x6+x64 <=1 
C265: x6+x65 <=1 
C266: x6+x67 <=1 
C267: x7+x9 <=1 
C268: x7+x13 <=1 
C269: x7+x14 <=1 
C270: x7+x15 <=1 
C271: x7+x16 <=1 
C272: x7+x19-y7_19 <=1 
C273: x7+x20-y7_20 <=1 
C274: x7+x21-y7_21 <=1 
C275: x7+x23-y7_23 <=1 
C276: x7+x25-y7_25 <=1 
C277: x7+x26-y7_26 <=1 
C278: x7+x27-y7_27 <=1 
C279: x7+x28 <=1 
C280: x7+x29 <=1 
C281: x7+x30 <=1 
C282: x7+x32-y7_32 <=1 
C283: x7+x33-y7_33 <=1 
C284: x7+x34-y7_34 <=1 
C285: x7+x39-y7_39 <=1 
C286: x7+x41-y7_41 <=1 
C287: x7+x43-y7_43 <=1 
C288: x7+x44 <=1 
C289: x7+x47-y7_47 <=1 
C290: x7+x48 <=1 
C291: x7+x49 <=1 
C292: x7+x51-y7_51 <=1 
C293: x7+x54 <=1 
C294: x7+x57 <=1 
C295: x7+x58 <=1 
C296: x7+x59-y7_59 <=1 
C297: x7+x64 <=1 
C298: x7+x65 <=1 
C299: x8+x11-y8_11 <=1 
C300: x8+x13 <=1 
C301: x8+x14-y8_14 <=1 
C302: x8+x15-y8_15 <=1 
C303: x8+x16 <=1 
C304: x8+x18-y8_18 <=1 
C305: x8+x19 <=1 
C306: x8+x21 <=1 
C307: x8+x22 <=1 
C308: x8+x23-y8_23 <=1 
C309: x8+x26 <=1 
C310: x8+x28-y8_28 <=1 
C311: x8+x29 <=1 
C312: x8+x30-y8_30 <=1 
C313: x8+x31 <=1 
C314: x8+x32-y8_32 <=1 
C315: x8+x33-y8_33 <=1 
C316: x8+x34-y8_34 <=1 
C317: x8+x36 <=1 
C318: x8+x37 <=1 
C319: x8+x39-y8_39 <=1 
C320: x8+x40 <=1 
C321: x8+x42 <=1 
C322: x8+x43-y8_43 <=1 
C323: x8+x47 <=1 
C324: x8+x48-y8_48 <=1 
C325: x8+x49 <=1 
C326: x8+x50 <=1 
C327: x8+x51 <=1 
C328: x8+x52-y8_52 <=1 
C329: x8+x53-y8_53 <=1 
C330: x8+x56-y8_56 <=1 
C331: x8+x58-y8_58 <=1 
C332: x8+x61-y8_61 <=1 
C333: x8+x62 <=1 
C334: x8+x63-y8_63 <=1 
C335: x8+x65 <=1 
C336: x8+x67 <=1 
C337: x9+x10-y9_10 <=1 
C338: x9+x11 <=1 
C339: x9+x12-y9_12 <=1 
C340: x9+x13-y9_13 <=1 
C341: x9+x16 <=1 
C342: x9+x17-y9_17 <=1 
C343: x9+x18-y9_18 <=1 
C344: x9+x21 <=1 
C345: x9+x23 <=1 
C346: x9+x24-y9_24 <=1 
C347: x9+x25 <=1 
C348: x9+x27 <=1 
C349: x9+x30 <=1 
C350: x9+x34 <=1 
C351: x9+x35-y9_35 <=1 
C352: x9+x37-y9_37 <=1 
C353: x9+x38 <=1 
C354: x9+x39 <=1 
C355: x9+x40 <=1 
C356: x9+x41-y9_41 <=1 
C357: x9+x42-y9_42 <=1 
C358: x9+x43 <=1 
C359: x9+x47-y9_47 <=1 
C360: x9+x48-y9_48 <=1 
C361: x9+x50 <=1 
C362: x9+x52-y9_52 <=1 
C363: x9+x53 <=1 
C364: x9+x56 <=1 
C365: x9+x57-y9_57 <=1 
C366: x9+x58 <=1 
C367: x9+x59 <=1 
C368: x9+x60 <=1 
C369: x9+x64-y9_64 <=1 
C370: x9+x66 <=1 
C371: x10+x12 <=1 
C372: x10+x14-y10_14 <=1 
C373: x10+x15 <=1 
C374: x10+x16 <=1 
C375: x10+x18-y10_18 <=1 
C376: x10+x20 <=1 
C377: x10+x21-y10_21 <=1 
C378: x10+x22 <=1 
C379: x10+x23-y10_23 <=1 
C380: x10+x26 <=1 
C381: x10+x28 <=1 
C382: x10+x31 <=1 
C383: x10+x33 <=1 
C384: x10+x34 <=1 
C385: x10+x35-y10_35 <=1 
C386: x10+x36-y10_36 <=1 
C387: x10+x37 <=1 
C388: x10+x38 <=1 
C389: x10+x39 <=1 
C390: x10+x40 <=1 
C391: x10+x42 <=1 
C392: x10+x44-y10_44 <=1 
C393: x10+x45 <=1 
C394: x10+x47 <=1 
C395: x10+x48 <=1 
C396: x10+x49-y10_49 <=1 
C397: x10+x51-y10_51 <=1 
C398: x10+x52 <=1 
C399: x10+x53 <=1 
C400: x10+x55-y10_55 <=1 
C401: x10+x56 <=1 
C402: x10+x57-y10_57 <=1 
C403: x10+x58 <=1 
C404: x10+x59-y10_59 <=1 
C405: x10+x61-y10_61 <=1 
C406: x10+x62-y10_62 <=1 
C407: x10+x66 <=1 
C408: x10+x67-y10_67 <=1 
C409: x11+x14 <=1 
C410: x11+x18-y11_18 <=1 
C411: x11+x19-y11_19 <=1 
C412: x11+x20 <=1 
C413: x11+x22-y11_22 <=1 
C414: x11+x23 <=1 
C415: x11+x24-y11_24 <=1 
C416: x11+x27 <=1 
C417: x11+x28-y11_28 <=1 
C418: x11+x31-y11_31 <=1 
C419: x11+x33-y11_33 <=1 
C420: x11+x36 <=1 
C421: x11+x37-y11_37 <=1 
C422: x11+x38 <=1 
C423: x11+x39-y11_39 <=1 
C424: x11+x41-y11_41 <=1 
C425: x11+x43-y11_43 <=1 
C426: x11+x46-y11_46 <=1 
C427: x11+x52-y11_52 <=1 
C428: x11+x53 <=1 
C429: x11+x55-y11_55 <=1 
C430: x11+x58-y11_58 <=1 
C431: x11+x59 <=1 
C432: x11+x60-y11_60 <=1 
C433: x11+x62-y11_62 <=1 
C434: x11+x65-y11_65 <=1 
C435: x11+x67 <=1 
C436: x12+x15-y12_15 <=1 
C437: x12+x16-y12_16 <=1 
C438: x12+x17 <=1 
C439: x12+x18-y12_18 <=1 
C440: x12+x22 <=1 
C441: x12+x23 <=1 
C442: x12+x24 <=1 
C443: x12+x25 <=1 
C444: x12+x26-y12_26 <=1 
C445: x12+x28-y12_28 <=1 
C446: x12+x31 <=1 
C447: x12+x32-y12_32 <=1 
C448: x12+x33-y12_33 <=1 
C449: x12+x36-y12_36 <=1 
C450: x12+x37-y12_37 <=1 
C451: x12+x38 <=1 
C452: x12+x39-y12_39 <=1 
C453: x12+x40 <=1 
C454: x12+x44 <=1 
C455: x12+x45-y12_45 <=1 
C456: x12+x50-y12_50 <=1 
C457: x12+x51-y12_51 <=1 
C458: x12+x52 <=1 
C459: x12+x53 <=1 
C460: x12+x54 <=1 
C461: x12+x55 <=1 
C462: x12+x58 <=1 
C463: x12+x61 <=1 
C464: x12+x62 <=1 
C465: x12+x67-y12_67 <=1 
C466: x13+x14-y13_14 <=1 
C467: x13+x15-y13_15 <=1 
C468: x13+x18-y13_18 <=1 
C469: x13+x22 <=1 
C470: x13+x23 <=1 
C471: x13+x24 <=1 
C472: x13+x26-y13_26 <=1 
C473: x13+x32 <=1 
C474: x13+x35-y13_35 <=1 
C475: x13+x37 <=1 
C476: x13+x38-y13_38 <=1 
C477: x13+x39 <=1 
C478: x13+x40-y13_40 <=1 
C479: x13+x41 <=1 
C480: x13+x43 <=1 
C481: x13+x44-y13_44 <=1 
C482: x13+x45-y13_45 <=1 
C483: x13+x46-y13_46 <=1 
C484: x13+x50 <=1 
C485: x13+x51-y13_51 <=1 
C486: x13+x53-y13_53 <=1 
C487: x13+x55 <=1 
C488: x13+x57-y13_57 <=1 
C489: x13+x58 <=1 
C490: x13+x59 <=1 
C491: x13+x60 <=1 
C492: x13+x63-y13_63 <=1 
C493: x13+x65 <=1 
C494: x13+x67 <=1 
C495: x14+x15-y14_15 <=1 
C496: x14+x16-y14_16 <=1 
C497: x14+x17-y14_17 <=1 
C498: x14+x18 <=1 
C499: x14+x19 <=1 
C500: x14+x20-y14_20 <=1 
C501: x14+x21-y14_21 <=1 
C502: x14+x22-y14_22 <=1 
C503: x14+x23 <=1 
C504: x14+x26 <=1 
C505: x14+x28 <=1 
C506: x14+x30 <=1 
C507: x14+x31-y14_31 <=1 
C508: x14+x33-y14_33 <=1 
C509: x14+x34 <=1 
C510: x14+x35-y14_35 <=1 
C511: x14+x36-y14_36 <=1 
C512: x14+x37 <=1 
C513: x14+x39-y14_39 <=1 
C514: x14+x40-y14_40 <=1 
C515: x14+x41 <=1 
C516: x14+x42-y14_42 <=1 
C517: x14+x44 <=1 
C518: x14+x45 <=1 
C519: x14+x46-y14_46 <=1 
C520: x14+x48-y14_48 <=1 
C521: x14+x51 <=1 
C522: x14+x54 <=1 
C523: x14+x55 <=1 
C524: x14+x56 <=1 
C525: x14+x57 <=1 
C526: x14+x58-y14_58 <=1 
C527: x14+x59-y14_59 <=1 
C528: x14+x61-y14_61 <=1 
C529: x14+x62-y14_62 <=1 
C530: x14+x64 <=1 
C531: x14+x66 <=1 
C532: x15+x16 <=1 
C533: x15+x17-y15_17 <=1 
C534: x15+x18 <=1 
C535: x15+x19 <=1 
C536: x15+x22-y15_22 <=1 
C537: x15+x24 <=1 
C538: x15+x26-y15_26 <=1 
C539: x15+x27 <=1 
C540: x15+x29 <=1 
C541: x15+x32 <=1 
C542: x15+x34-y15_34 <=1 
C543: x15+x35-y15_35 <=1 
C544: x15+x36 <=1 
C545: x15+x37-y15_37 <=1 
C546: x15+x38-y15_38 <=1 
C547: x15+x40 <=1 
C548: x15+x41 <=1 
C549: x15+x44 <=1 
C550: x15+x45 <=1 
C551: x15+x47-y15_47 <=1 
C552: x15+x48-y15_48 <=1 
C553: x15+x50-y15_50 <=1 
C554: x15+x51-y15_51 <=1 
C555: x15+x52-y15_52 <=1 
C556: x15+x56 <=1 
C557: x15+x57 <=1 
C558: x15+x58-y15_58 <=1 
C559: x15+x59 <=1 
C560: x15+x63-y15_63 <=1 
C561: x15+x66-y15_66 <=1 
C562: x15+x67 <=1 
C563: x16+x17 <=1 
C564: x16+x18 <=1 
C565: x16+x19 <=1 
C566: x16+x20 <=1 
C567: x16+x21 <=1 
C568: x16+x23 <=1 
C569: x16+x25 <=1 
C570: x16+x29 <=1 
C571: x16+x30 <=1 
C572: x16+x33-y16_33 <=1 
C573: x16+x34 <=1 
C574: x16+x35-y16_35 <=1 
C575: x16+x36 <=1 
C576: x16+x37 <=1 
C577: x16+x38 <=1 
C578: x16+x39 <=1 
C579: x16+x40-y16_40 <=1 
C580: x16+x44 <=1 
C581: x16+x45-y16_45 <=1 
C582: x16+x46-y16_46 <=1 
C583: x16+x48 <=1 
C584: x16+x49-y16_49 <=1 
C585: x16+x51 <=1 
C586: x16+x52-y16_52 <=1 
C587: x16+x53 <=1 
C588: x16+x55 <=1 
C589: x16+x56-y16_56 <=1 
C590: x16+x59 <=1 
C591: x16+x60 <=1 
C592: x16+x61-y16_61 <=1 
C593: x16+x62 <=1 
C594: x16+x63 <=1 
C595: x16+x65-y16_65 <=1 
C596: x16+x66-y16_66 <=1 
C597: x16+x67-y16_67 <=1 
C598: x17+x21 <=1 
C599: x17+x25-y17_25 <=1 
C600: x17+x26 <=1 
C601: x17+x27-y17_27 <=1 
C602: x17+x28-y17_28 <=1 
C603: x17+x29-y17_29 <=1 
C604: x17+x30 <=1 
C605: x17+x31-y17_31 <=1 
C606: x17+x32 <=1 
C607: x17+x33 <=1 
C608: x17+x36-y17_36 <=1 
C609: x17+x39-y17_39 <=1 
C610: x17+x40-y17_40 <=1 
C611: x17+x42-y17_42 <=1 
C612: x17+x43-y17_43 <=1 
C613: x17+x46 <=1 
C614: x17+x48 <=1 
C615: x17+x50 <=1 
C616: x17+x51 <=1 
C617: x17+x52-y17_52 <=1 
C618: x17+x53 <=1 
C619: x17+x54-y17_54 <=1 
C620: x17+x56 <=1 
C621: x17+x57-y17_57 <=1 
C622: x17+x58 <=1 
C623: x17+x59-y17_59 <=1 
C624: x17+x60-y17_60 <=1 
C625: x17+x62 <=1 
C626: x17+x64 <=1 
C627: x17+x65 <=1 
C628: x18+x19-y18_19 <=1 
C629: x18+x27 <=1 
C630: x18+x28-y18_28 <=1 
C631: x18+x30-y18_30 <=1 
C632: x18+x31-y18_31 <=1 
C633: x18+x34-y18_34 <=1 
C634: x18+x35 <=1 
C635: x18+x39 <=1 
C636: x18+x41 <=1 
C637: x18+x42 <=1 
C638: x18+x44 <=1 
C639: x18+x45 <=1 
C640: x18+x47 <=1 
C641: x18+x48-y18_48 <=1 
C642: x18+x49-y18_49 <=1 
C643: x18+x50 <=1 
C644: x18+x52 <=1 
C645: x18+x53 <=1 
C646: x18+x54 <=1 
C647: x18+x56-y18_56 <=1 
C648: x18+x61-y18_61 <=1 
C649: x18+x62 <=1 
C650: x18+x63 <=1 
C651: x18+x64 <=1 
C652: x18+x65 <=1 
C653: x19+x20 <=1 
C654: x19+x26 <=1 
C655: x19+x28-y19_28 <=1 
C656: x19+x30 <=1 
C657: x19+x31 <=1 
C658: x19+x32 <=1 
C659: x19+x35-y19_35 <=1 
C660: x19+x39-y19_39 <=1 
C661: x19+x40 <=1 
C662: x19+x43 <=1 
C663: x19+x47 <=1 
C664: x19+x48 <=1 
C665: x19+x50 <=1 
C666: x19+x51 <=1 
C667: x19+x52 <=1 
C668: x19+x55-y19_55 <=1 
C669: x19+x58-y19_58 <=1 
C670: x19+x59-y19_59 <=1 
C671: x19+x62 <=1 
C672: x19+x64-y19_64 <=1 
C673: x19+x66-y19_66 <=1 
C674: x20+x21 <=1 
C675: x20+x22-y20_22 <=1 
C676: x20+x23 <=1 
C677: x20+x25 <=1 
C678: x20+x27-y20_27 <=1 
C679: x20+x29 <=1 
C680: x20+x32-y20_32 <=1 
C681: x20+x33-y20_33 <=1 
C682: x20+x35 <=1 
C683: x20+x37 <=1 
C684: x20+x39 <=1 
C685: x20+x40 <=1 
C686: x20+x42 <=1 
C687: x20+x43 <=1 
C688: x20+x45-y20_45 <=1 
C689: x20+x46-y20_46 <=1 
C690: x20+x48 <=1 
C691: x20+x52-y20_52 <=1 
C692: x20+x53 <=1 
C693: x20+x54-y20_54 <=1 
C694: x20+x57 <=1 
C695: x20+x58 <=1 
C696: x20+x59-y20_59 <=1 
C697: x20+x60 <=1 
C698: x20+x61 <=1 
C699: x20+x64 <=1 
C700: x20+x67 <=1 
C701: x21+x22-y21_22 <=1 
C702: x21+x23-y21_23 <=1 
C703: x21+x25-y21_25 <=1 
C704: x21+x27-y21_27 <=1 
C705: x21+x29-y21_29 <=1 
C706: x21+x30 <=1 
C707: x21+x32 <=1 
C708: x21+x35-y21_35 <=1 
C709: x21+x36 <=1 
C710: x21+x39 <=1 
C711: x21+x43 <=1 
C712: x21+x44-y21_44 <=1 
C713: x21+x45 <=1 
C714: x21+x47-y21_47 <=1 
C715: x21+x48 <=1 
C716: x21+x50-y21_50 <=1 
C717: x21+x51-y21_51 <=1 
C718: x21+x52-y21_52 <=1 
C719: x21+x55 <=1 
C720: x21+x56 <=1 
C721: x21+x57-y21_57 <=1 
C722: x21+x58-y21_58 <=1 
C723: x21+x59-y21_59 <=1 
C724: x21+x62-y21_62 <=1 
C725: x22+x23-y22_23 <=1 
C726: x22+x25-y22_25 <=1 
C727: x22+x26-y22_26 <=1 
C728: x22+x28-y22_28 <=1 
C729: x22+x30 <=1 
C730: x22+x31-y22_31 <=1 
C731: x22+x33-y22_33 <=1 
C732: x22+x34 <=1 
C733: x22+x35 <=1 
C734: x22+x40 <=1 
C735: x22+x43-y22_43 <=1 
C736: x22+x44-y22_44 <=1 
C737: x22+x45-y22_45 <=1 
C738: x22+x56-y22_56 <=1 
C739: x22+x57-y22_57 <=1 
C740: x22+x58-y22_58 <=1 
C741: x22+x59-y22_59 <=1 
C742: x22+x61-y22_61 <=1 
C743: x22+x62 <=1 
C744: x22+x63 <=1 
C745: x22+x65 <=1 
C746: x22+x66-y22_66 <=1 
C747: x23+x25 <=1 
C748: x23+x27-y23_27 <=1 
C749: x23+x28 <=1 
C750: x23+x30 <=1 
C751: x23+x31 <=1 
C752: x23+x32-y23_32 <=1 
C753: x23+x33 <=1 
C754: x23+x34 <=1 
C755: x23+x35-y23_35 <=1 
C756: x23+x36 <=1 
C757: x23+x39-y23_39 <=1 
C758: x23+x40-y23_40 <=1 
C759: x23+x41-y23_41 <=1 
C760: x23+x42-y23_42 <=1 
C761: x23+x44 <=1 
C762: x23+x46-y23_46 <=1 
C763: x23+x47-y23_47 <=1 
C764: x23+x49-y23_49 <=1 
C765: x23+x51 <=1 
C766: x23+x52-y23_52 <=1 
C767: x23+x53 <=1 
C768: x23+x55 <=1 
C769: x23+x56-y23_56 <=1 
C770: x23+x58-y23_58 <=1 
C771: x23+x59-y23_59 <=1 
C772: x23+x60-y23_60 <=1 
C773: x23+x61 <=1 
C774: x23+x63-y23_63 <=1 
C775: x23+x64 <=1 
C776: x23+x66 <=1 
C777: x23+x67 <=1 
C778: x24+x25 <=1 
C779: x24+x26 <=1 
C780: x24+x28 <=1 
C781: x24+x29-y24_29 <=1 
C782: x24+x33 <=1 
C783: x24+x34 <=1 
C784: x24+x35-y24_35 <=1 
C785: x24+x36-y24_36 <=1 
C786: x24+x37-y24_37 <=1 
C787: x24+x40 <=1 
C788: x24+x41-y24_41 <=1 
C789: x24+x42 <=1 
C790: x24+x44-y24_44 <=1 
C791: x24+x45-y24_45 <=1 
C792: x24+x46 <=1 
C793: x24+x49 <=1 
C794: x24+x50-y24_50 <=1 
C795: x24+x51-y24_51 <=1 
C796: x24+x52 <=1 
C797: x24+x53 <=1 
C798: x24+x55 <=1 
C799: x24+x57 <=1 
C800: x24+x58-y24_58 <=1 
C801: x24+x60 <=1 
C802: x24+x62-y24_62 <=1 
C803: x24+x63-y24_63 <=1 
C804: x24+x64-y24_64 <=1 
C805: x24+x66 <=1 
C806: x25+x27-y25_27 <=1 
C807: x25+x28 <=1 
C808: x25+x30-y25_30 <=1 
C809: x25+x31-y25_31 <=1 
C810: x25+x32-y25_32 <=1 
C811: x25+x33 <=1 
C812: x25+x34-y25_34 <=1 
C813: x25+x35-y25_35 <=1 
C814: x25+x39-y25_39 <=1 
C815: x25+x40-y25_40 <=1 
C816: x25+x44-y25_44 <=1 
C817: x25+x45-y25_45 <=1 
C818: x25+x46-y25_46 <=1 
C819: x25+x47 <=1 
C820: x25+x48-y25_48 <=1 
C821: x25+x50 <=1 
C822: x25+x51 <=1 
C823: x25+x54-y25_54 <=1 
C824: x25+x55-y25_55 <=1 
C825: x25+x56-y25_56 <=1 
C826: x25+x57-y25_57 <=1 
C827: x25+x58-y25_58 <=1 
C828: x25+x60 <=1 
C829: x25+x62-y25_62 <=1 
C830: x25+x63 <=1 
C831: x25+x66-y25_66 <=1 
C832: x25+x67-y25_67 <=1 
C833: x26+x28-y26_28 <=1 
C834: x26+x29-y26_29 <=1 
C835: x26+x31-y26_31 <=1 
C836: x26+x32-y26_32 <=1 
C837: x26+x34 <=1 
C838: x26+x37 <=1 
C839: x26+x38 <=1 
C840: x26+x39 <=1 
C841: x26+x41 <=1 
C842: x26+x42-y26_42 <=1 
C843: x26+x43-y26_43 <=1 
C844: x26+x45 <=1 
C845: x26+x46-y26_46 <=1 
C846: x26+x48 <=1 
C847: x26+x51 <=1 
C848: x26+x52-y26_52 <=1 
C849: x26+x54 <=1 
C850: x26+x58-y26_58 <=1 
C851: x26+x59 <=1 
C852: x26+x60 <=1 
C853: x26+x61-y26_61 <=1 
C854: x26+x62 <=1 
C855: x26+x65 <=1 
C856: x27+x28 <=1 
C857: x27+x30 <=1 
C858: x27+x32-y27_32 <=1 
C859: x27+x36-y27_36 <=1 
C860: x27+x39-y27_39 <=1 
C861: x27+x41 <=1 
C862: x27+x43 <=1 
C863: x27+x44-y27_44 <=1 
C864: x27+x46-y27_46 <=1 
C865: x27+x47-y27_47 <=1 
C866: x27+x49-y27_49 <=1 
C867: x27+x50-y27_50 <=1 
C868: x27+x52 <=1 
C869: x27+x53 <=1 
C870: x27+x58 <=1 
C871: x27+x60-y27_60 <=1 
C872: x27+x62 <=1 
C873: x27+x63 <=1 
C874: x27+x66-y27_66 <=1 
C875: x27+x67-y27_67 <=1 
C876: x28+x29-y28_29 <=1 
C877: x28+x31 <=1 
C878: x28+x33 <=1 
C879: x28+x35-y28_35 <=1 
C880: x28+x37-y28_37 <=1 
C881: x28+x38 <=1 
C882: x28+x39 <=1 
C883: x28+x40-y28_40 <=1 
C884: x28+x41 <=1 
C885: x28+x43-y28_43 <=1 
C886: x28+x44 <=1 
C887: x28+x47 <=1 
C888: x28+x48 <=1 
C889: x28+x50 <=1 
C890: x28+x51 <=1 
C891: x28+x52 <=1 
C892: x28+x54-y28_54 <=1 
C893: x28+x58 <=1 
C894: x28+x60 <=1 
C895: x28+x62 <=1 
C896: x28+x63-y28_63 <=1 
C897: x28+x64-y28_64 <=1 
C898: x28+x65 <=1 
C899: x29+x30 <=1 
C900: x29+x31 <=1 
C901: x29+x34 <=1 
C902: x29+x37-y29_37 <=1 
C903: x29+x39-y29_39 <=1 
C904: x29+x40-y29_40 <=1 
C905: x29+x42-y29_42 <=1 
C906: x29+x44 <=1 
C907: x29+x45 <=1 
C908: x29+x50-y29_50 <=1 
C909: x29+x51-y29_51 <=1 
C910: x29+x55-y29_55 <=1 
C911: x29+x56-y29_56 <=1 
C912: x29+x58 <=1 
C913: x29+x59-y29_59 <=1 
C914: x29+x62 <=1 
C915: x29+x63 <=1 
C916: x29+x64-y29_64 <=1 
C917: x29+x65 <=1 
C918: x30+x31 <=1 
C919: x30+x33 <=1 
C920: x30+x35-y30_35 <=1 
C921: x30+x37-y30_37 <=1 
C922: x30+x38 <=1 
C923: x30+x41 <=1 
C924: x30+x42 <=1 
C925: x30+x43 <=1 
C926: x30+x44-y30_44 <=1 
C927: x30+x45-y30_45 <=1 
C928: x30+x46-y30_46 <=1 
C929: x30+x47 <=1 
C930: x30+x48 <=1 
C931: x30+x49 <=1 
C932: x30+x51 <=1 
C933: x30+x52 <=1 
C934: x30+x54 <=1 
C935: x30+x55 <=1 
C936: x30+x59-y30_59 <=1 
C937: x30+x60 <=1 
C938: x30+x63 <=1 
C939: x30+x66-y30_66 <=1 
C940: x31+x33 <=1 
C941: x31+x34-y31_34 <=1 
C942: x31+x35-y31_35 <=1 
C943: x31+x39-y31_39 <=1 
C944: x31+x41 <=1 
C945: x31+x43 <=1 
C946: x31+x45-y31_45 <=1 
C947: x31+x46 <=1 
C948: x31+x47-y31_47 <=1 
C949: x31+x48 <=1 
C950: x31+x50-y31_50 <=1 
C951: x31+x51 <=1 
C952: x31+x54-y31_54 <=1 
C953: x31+x55-y31_55 <=1 
C954: x31+x56-y31_56 <=1 
C955: x31+x57 <=1 
C956: x31+x60-y31_60 <=1 
C957: x31+x61 <=1 
C958: x31+x63-y31_63 <=1 
C959: x31+x64-y31_64 <=1 
C960: x31+x65-y31_65 <=1 
C961: x31+x66 <=1 
C962: x31+x67-y31_67 <=1 
C963: x32+x33 <=1 
C964: x32+x34-y32_34 <=1 
C965: x32+x35 <=1 
C966: x32+x37-y32_37 <=1 
C967: x32+x38-y32_38 <=1 
C968: x32+x39 <=1 
C969: x32+x40-y32_40 <=1 
C970: x32+x41 <=1 
C971: x32+x43-y32_43 <=1 
C972: x32+x44-y32_44 <=1 
C973: x32+x45 <=1 
C974: x32+x46 <=1 
C975: x32+x49-y32_49 <=1 
C976: x32+x52-y32_52 <=1 
C977: x32+x54 <=1 
C978: x32+x55-y32_55 <=1 
C979: x32+x56 <=1 
C980: x32+x58 <=1 
C981: x32+x60 <=1 
C982: x32+x61 <=1 
C983: x32+x63-y32_63 <=1 
C984: x32+x64-y32_64 <=1 
C985: x32+x65 <=1 
C986: x32+x66-y32_66 <=1 
C987: x33+x34-y33_34 <=1 
C988: x33+x35-y33_35 <=1 
C989: x33+x36 <=1 
C990: x33+x37 <=1 
C991: x33+x39 <=1 
C992: x33+x40-y33_40 <=1 
C993: x33+x42 <=1 
C994: x33+x43-y33_43 <=1 
C995: x33+x44-y33_44 <=1 
C996: x33+x48-y33_48 <=1 
C997: x33+x49 <=1 
C998: x33+x52-y33_52 <=1 
C999: x33+x55-y33_55 <=1 
C1000: x33+x56-y33_56 <=1 
C1001: x33+x57-y33_57 <=1 
C1002: x33+x60-y33_60 <=1 
C1003: x33+x62 <=1 
C1004: x33+x63-y33_63 <=1 
C1005: x33+x64 <=1 
C1006: x33+x65-y33_65 <=1 
C1007: x33+x66 <=1 
C1008: x33+x67-y33_67 <=1 
C1009: x34+x35-y34_35 <=1 
C1010: x34+x37 <=1 
C1011: x34+x39-y34_39 <=1 
C1012: x34+x40-y34_40 <=1 
C1013: x34+x41-y34_41 <=1 
C1014: x34+x44 <=1 
C1015: x34+x47 <=1 
C1016: x34+x48-y34_48 <=1 
C1017: x34+x49-y34_49 <=1 
C1018: x34+x51-y34_51 <=1 
C1019: x34+x53-y34_53 <=1 
C1020: x34+x56 <=1 
C1021: x34+x57 <=1 
C1022: x34+x58-y34_58 <=1 
C1023: x34+x62-y34_62 <=1 
C1024: x34+x64 <=1 
C1025: x34+x66-y34_66 <=1 
C1026: x34+x67 <=1 
C1027: x35+x37-y35_37 <=1 
C1028: x35+x38 <=1 
C1029: x35+x40-y35_40 <=1 
C1030: x35+x41 <=1 
C1031: x35+x43 <=1 
C1032: x35+x44-y35_44 <=1 
C1033: x35+x45-y35_45 <=1 
C1034: x35+x46 <=1 
C1035: x35+x47 <=1 
C1036: x35+x48 <=1 
C1037: x35+x49 <=1 
C1038: x35+x50-y35_50 <=1 
C1039: x35+x51-y35_51 <=1 
C1040: x35+x53-y35_53 <=1 
C1041: x35+x54 <=1 
C1042: x35+x55 <=1 
C1043: x35+x61-y35_61 <=1 
C1044: x35+x62-y35_62 <=1 
C1045: x35+x64 <=1 
C1046: x35+x65 <=1 
C1047: x36+x38 <=1 
C1048: x36+x40 <=1 
C1049: x36+x41 <=1 
C1050: x36+x42 <=1 
C1051: x36+x47-y36_47 <=1 
C1052: x36+x48-y36_48 <=1 
C1053: x36+x49-y36_49 <=1 
C1054: x36+x50-y36_50 <=1 
C1055: x36+x51 <=1 
C1056: x36+x53-y36_53 <=1 
C1057: x36+x54-y36_54 <=1 
C1058: x36+x55-y36_55 <=1 
C1059: x36+x56-y36_56 <=1 
C1060: x36+x58 <=1 
C1061: x36+x60 <=1 
C1062: x36+x61-y36_61 <=1 
C1063: x36+x63-y36_63 <=1 
C1064: x36+x65-y36_65 <=1 
C1065: x36+x66 <=1 
C1066: x37+x40-y37_40 <=1 
C1067: x37+x41-y37_41 <=1 
C1068: x37+x43 <=1 
C1069: x37+x46 <=1 
C1070: x37+x47-y37_47 <=1 
C1071: x37+x49 <=1 
C1072: x37+x51 <=1 
C1073: x37+x52 <=1 
C1074: x37+x53 <=1 
C1075: x37+x54-y37_54 <=1 
C1076: x37+x56 <=1 
C1077: x37+x58 <=1 
C1078: x37+x59-y37_59 <=1 
C1079: x37+x64-y37_64 <=1 
C1080: x37+x65 <=1 
C1081: x37+x67 <=1 
C1082: x38+x39 <=1 
C1083: x38+x41-y38_41 <=1 
C1084: x38+x42 <=1 
C1085: x38+x44-y38_44 <=1 
C1086: x38+x45 <=1 
C1087: x38+x46-y38_46 <=1 
C1088: x38+x49-y38_49 <=1 
C1089: x38+x52-y38_52 <=1 
C1090: x38+x53 <=1 
C1091: x38+x54 <=1 
C1092: x38+x56 <=1 
C1093: x38+x58-y38_58 <=1 
C1094: x38+x59 <=1 
C1095: x38+x60 <=1 
C1096: x38+x61-y38_61 <=1 
C1097: x38+x62-y38_62 <=1 
C1098: x38+x64 <=1 
C1099: x39+x41 <=1 
C1100: x39+x43 <=1 
C1101: x39+x47 <=1 
C1102: x39+x48 <=1 
C1103: x39+x51-y39_51 <=1 
C1104: x39+x54-y39_54 <=1 
C1105: x39+x55 <=1 
C1106: x39+x57 <=1 
C1107: x39+x58-y39_58 <=1 
C1108: x39+x60 <=1 
C1109: x39+x63 <=1 
C1110: x39+x65 <=1 
C1111: x39+x66-y39_66 <=1 
C1112: x39+x67-y39_67 <=1 
C1113: x40+x41-y40_41 <=1 
C1114: x40+x42-y40_42 <=1 
C1115: x40+x44-y40_44 <=1 
C1116: x40+x45-y40_45 <=1 
C1117: x40+x46 <=1 
C1118: x40+x47 <=1 
C1119: x40+x51 <=1 
C1120: x40+x53 <=1 
C1121: x40+x54-y40_54 <=1 
C1122: x40+x55 <=1 
C1123: x40+x56 <=1 
C1124: x40+x57-y40_57 <=1 
C1125: x40+x58-y40_58 <=1 
C1126: x40+x59 <=1 
C1127: x40+x66 <=1 
C1128: x40+x67-y40_67 <=1 
C1129: x41+x43 <=1 
C1130: x41+x48 <=1 
C1131: x41+x51 <=1 
C1132: x41+x54 <=1 
C1133: x41+x56 <=1 
C1134: x41+x57-y41_57 <=1 
C1135: x41+x58 <=1 
C1136: x41+x60 <=1 
C1137: x41+x63 <=1 
C1138: x41+x64 <=1 
C1139: x41+x65-y41_65 <=1 
C1140: x41+x66 <=1 
C1141: x41+x67 <=1 
C1142: x42+x44 <=1 
C1143: x42+x49-y42_49 <=1 
C1144: x42+x50-y42_50 <=1 
C1145: x42+x51-y42_51 <=1 
C1146: x42+x55 <=1 
C1147: x42+x57 <=1 
C1148: x42+x58-y42_58 <=1 
C1149: x42+x60-y42_60 <=1 
C1150: x42+x63-y42_63 <=1 
C1151: x42+x65 <=1 
C1152: x42+x66-y42_66 <=1 
C1153: x43+x45-y43_45 <=1 
C1154: x43+x47-y43_47 <=1 
C1155: x43+x49 <=1 
C1156: x43+x50-y43_50 <=1 
C1157: x43+x52 <=1 
C1158: x43+x53 <=1 
C1159: x43+x54 <=1 
C1160: x43+x58 <=1 
C1161: x43+x60 <=1 
C1162: x43+x62 <=1 
C1163: x43+x64 <=1 
C1164: x43+x65-y43_65 <=1 
C1165: x44+x47 <=1 
C1166: x44+x49-y44_49 <=1 
C1167: x44+x50 <=1 
C1168: x44+x51-y44_51 <=1 
C1169: x44+x52-y44_52 <=1 
C1170: x44+x53 <=1 
C1171: x44+x60-y44_60 <=1 
C1172: x44+x62 <=1 
C1173: x44+x63-y44_63 <=1 
C1174: x44+x65-y44_65 <=1 
C1175: x44+x67 <=1 
C1176: x45+x47 <=1 
C1177: x45+x48-y45_48 <=1 
C1178: x45+x51-y45_51 <=1 
C1179: x45+x52-y45_52 <=1 
C1180: x45+x53-y45_53 <=1 
C1181: x45+x54-y45_54 <=1 
C1182: x45+x56 <=1 
C1183: x45+x58 <=1 
C1184: x45+x61-y45_61 <=1 
C1185: x45+x65-y45_65 <=1 
C1186: x45+x66-y45_66 <=1 
C1187: x46+x47 <=1 
C1188: x46+x52 <=1 
C1189: x46+x53 <=1 
C1190: x46+x54 <=1 
C1191: x46+x58-y46_58 <=1 
C1192: x46+x59 <=1 
C1193: x46+x61-y46_61 <=1 
C1194: x46+x62-y46_62 <=1 
C1195: x46+x65 <=1 
C1196: x47+x49-y47_49 <=1 
C1197: x47+x55 <=1 
C1198: x47+x57 <=1 
C1199: x47+x58 <=1 
C1200: x47+x59 <=1 
C1201: x47+x60-y47_60 <=1 
C1202: x47+x62-y47_62 <=1 
C1203: x47+x64 <=1 
C1204: x47+x65-y47_65 <=1 
C1205: x47+x66 <=1 
C1206: x48+x49-y48_49 <=1 
C1207: x48+x50 <=1 
C1208: x48+x52 <=1 
C1209: x48+x53 <=1 
C1210: x48+x59-y48_59 <=1 
C1211: x48+x60 <=1 
C1212: x48+x61-y48_61 <=1 
C1213: x48+x62-y48_62 <=1 
C1214: x48+x65-y48_65 <=1 
C1215: x48+x67 <=1 
C1216: x49+x55-y49_55 <=1 
C1217: x49+x56 <=1 
C1218: x49+x58-y49_58 <=1 
C1219: x49+x59 <=1 
C1220: x49+x60-y49_60 <=1 
C1221: x49+x61-y49_61 <=1 
C1222: x49+x62-y49_62 <=1 
C1223: x49+x63-y49_63 <=1 
C1224: x49+x66 <=1 
C1225: x49+x67-y49_67 <=1 
C1226: x50+x51 <=1 
C1227: x50+x54 <=1 
C1228: x50+x58-y50_58 <=1 
C1229: x50+x59-y50_59 <=1 
C1230: x50+x60-y50_60 <=1 
C1231: x50+x61-y50_61 <=1 
C1232: x50+x62-y50_62 <=1 
C1233: x50+x66 <=1 
C1234: x51+x52 <=1 
C1235: x51+x54-y51_54 <=1 
C1236: x51+x57-y51_57 <=1 
C1237: x51+x58-y51_58 <=1 
C1238: x51+x60 <=1 
C1239: x51+x61-y51_61 <=1 
C1240: x51+x62 <=1 
C1241: x51+x63-y51_63 <=1 
C1242: x51+x64-y51_64 <=1 
C1243: x51+x65-y51_65 <=1 
C1244: x51+x67 <=1 
C1245: x52+x54-y52_54 <=1 
C1246: x52+x55-y52_55 <=1 
C1247: x52+x56 <=1 
C1248: x52+x57-y52_57 <=1 
C1249: x52+x58-y52_58 <=1 
C1250: x52+x60 <=1 
C1251: x52+x62-y52_62 <=1 
C1252: x52+x64 <=1 
C1253: x53+x56 <=1 
C1254: x53+x58 <=1 
C1255: x53+x60-y53_60 <=1 
C1256: x53+x64-y53_64 <=1 
C1257: x53+x65-y53_65 <=1 
C1258: x53+x66-y53_66 <=1 
C1259: x53+x67 <=1 
C1260: x54+x55-y54_55 <=1 
C1261: x54+x57 <=1 
C1262: x54+x58-y54_58 <=1 
C1263: x54+x59-y54_59 <=1 
C1264: x54+x60 <=1 
C1265: x54+x62 <=1 
C1266: x54+x65-y54_65 <=1 
C1267: x54+x66-y54_66 <=1 
C1268: x54+x67-y54_67 <=1 
C1269: x55+x56-y55_56 <=1 
C1270: x55+x59 <=1 
C1271: x55+x60 <=1 
C1272: x55+x61-y55_61 <=1 
C1273: x55+x63 <=1 
C1274: x55+x64-y55_64 <=1 
C1275: x55+x65-y55_65 <=1 
C1276: x56+x58-y56_58 <=1 
C1277: x56+x59-y56_59 <=1 
C1278: x56+x60 <=1 
C1279: x56+x63 <=1 
C1280: x56+x64 <=1 
C1281: x56+x65-y56_65 <=1 
C1282: x56+x66-y56_66 <=1 
C1283: x56+x67-y56_67 <=1 
C1284: x57+x58 <=1 
C1285: x57+x59 <=1 
C1286: x57+x60-y57_60 <=1 
C1287: x57+x65-y57_65 <=1 
C1288: x58+x59-y58_59 <=1 
C1289: x58+x60 <=1 
C1290: x58+x62-y58_62 <=1 
C1291: x58+x63 <=1 
C1292: x58+x64-y58_64 <=1 
C1293: x58+x66 <=1 
C1294: x58+x67 <=1 
C1295: x59+x61-y59_61 <=1 
C1296: x59+x62 <=1 
C1297: x59+x63 <=1 
C1298: x59+x64-y59_64 <=1 
C1299: x59+x66 <=1 
C1300: x59+x67-y59_67 <=1 
C1301: x60+x62-y60_62 <=1 
C1302: x60+x64 <=1 
C1303: x60+x66 <=1 
C1304: x60+x67-y60_67 <=1 
C1305: x61+x65-y61_65 <=1 
C1306: x62+x63 <=1 
C1307: x62+x65 <=1 
C1308: x63+x64 <=1 
C1309: x63+x65 <=1 
C1310: x64+x65-y64_65 <=1 
C1311: x64+x66-y64_66 <=1 
C1312: x65+x66 <=1 
C1313: x65+x67-y65_67 <=1 

binary
x0
x1
x2
x3
x4
x5
x6
x7
x8
x9
x10
x11
x12
x13
x14
x15
x16
x17
x18
x19
x20
x21
x22
x23
x24
x25
x26
x27
x28
x29
x30
x31
x32
x33
x34
x35
x36
x37
x38
x39
x40
x41
x42
x43
x44
x45
x46
x47
x48
x49
x50
x51
x52
x53
x54
x55
x56
x57
x58
x59
x60
x61
x62
x63
x64
x65
x66
x67
