problem_generation/data/GISP/train/er_n=68_m=1313_p=0.60_SET2_setparam=100.00_alpha=0.50_752.sol
objective value:                                 1280
x9                                                  1 	(obj:100)
x19                                                 1 	(obj:100)
x22                                                 1 	(obj:100)
x28                                                 1 	(obj:100)
x36                                                 1 	(obj:100)
x45                                                 1 	(obj:100)
x46                                                 1 	(obj:100)
x49                                                 1 	(obj:100)
x55                                                 1 	(obj:100)
x57                                                 1 	(obj:100)
x61                                                 1 	(obj:100)
x64                                                 1 	(obj:100)
x67                                                 1 	(obj:100)
y22_28                                              1 	(obj:-1)
y55_61                                              1 	(obj:-1)
y36_61                                              1 	(obj:-1)
y9_57                                               1 	(obj:-1)
y19_55                                              1 	(obj:-1)
y19_64                                              1 	(obj:-1)
y49_55                                              1 	(obj:-1)
y45_61                                              1 	(obj:-1)
y22_45                                              1 	(obj:-1)
y55_64                                              1 	(obj:-1)
y36_55                                              1 	(obj:-1)
y28_64                                              1 	(obj:-1)
y9_64                                               1 	(obj:-1)
y36_49                                              1 	(obj:-1)
y49_67                                              1 	(obj:-1)
y46_61                                              1 	(obj:-1)
y49_61                                              1 	(obj:-1)
y22_57                                              1 	(obj:-1)
y22_61                                              1 	(obj:-1)
y19_28                                              1 	(obj:-1)
